######################
### data file for knapsack problem
######################

param n := 20;

param : c a :=
 1 15 11
 2 13 12
 3 14 13
 4 17 14
 5 17 15
 6 14 16
 7 16 17
 8 12 18
 9 19 19
10 10 10
11 13 11
12 14 12
13 17 13
14 16 14
15 13 15
16 14 16
17 12 17
18 18 18
19 15 19
20 16 10
;

param b := 30;

param ncuts := 0;

#set Cover[1] := 1 13 20;

